# Solution for model r5_t27_m5_9
# Finished Task: 22 / 27
# Makespan: 586.0, Total Distance: 1307.0, Total Time: 0.3055
# R O S F
0 0 10 0.0 0.0
1 1 28 0.0 0.0
2 2 5 0.0 0.0
3 3 12 0.0 0.0
4 4 11 0.0 0.0
5 2 21 183.0 211.0
6 0 23 288.0 312.0
7 -1 -1 -1.0 -1.0
8 4 24 274.0 302.0
9 0 -1 548.0 586.0
10 0 6 160.0 183.0
11 4 31 108.0 133.0
12 3 26 312.0 349.0
13 1 18 477.0 497.0
14 -1 -1 -1.0 -1.0
15 1 25 408.0 428.0
16 0 9 428.0 452.0
17 3 -1 508.0 542.0
18 1 -1 543.0 571.0
19 4 20 441.0 468.0
20 4 -1 536.0 568.0
21 2 27 452.0 485.0
22 -1 -1 -1.0 -1.0
23 0 16 374.0 408.0
24 4 19 385.0 424.0
25 1 13 436.0 468.0
26 3 17 449.0 475.0
27 2 -1 514.0 549.0
28 1 15 351.0 374.0
29 -1 -1 -1.0 -1.0
30 -1 -1 -1.0 -1.0
31 4 8 240.0 260.0
